

******************************************************************************
This program contains Ipopt, a library for large-scale nonlinear optimization.
 Ipopt is released as open source code under the Eclipse Public License (EPL).
         For more information visit http://projects.coin-or.org/Ipopt
******************************************************************************

This is Ipopt version 3.12.8, running with linear solver mumps.
NOTE: Other linear solvers might be more efficient (see Ipopt documentation).

Number of nonzeros in equality constraint Jacobian...:       10
Number of nonzeros in inequality constraint Jacobian.:        0
Number of nonzeros in Lagrangian Hessian.............:        7

Total number of variables............................:        7
                     variables with only lower bounds:        7
                variables with lower and upper bounds:        0
                     variables with only upper bounds:        0
Total number of equality constraints.................:        4
Total number of inequality constraints...............:        0
        inequality constraints with only lower bounds:        0
   inequality constraints with lower and upper bounds:        0
        inequality constraints with only upper bounds:        0

iter    objective    inf_pr   inf_du lg(mu)  ||d||  lg(rg) alpha_du alpha_pr  ls
   0 -1.0000000e+00 8.88e-16 2.04e+00  -1.0 0.00e+00    -  0.00e+00 0.00e+00   0
   1 -1.7896122e+01 8.22e+00 5.79e+00  -1.0 1.70e+00   0.0 3.80e-01 1.00e+00f  1
   2 -1.8177937e+01 7.97e+00 2.77e+01  -1.0 1.20e+00   1.3 1.00e+00 1.00e+00h  1
   3 -1.3324342e+01 5.37e+00 2.31e+01  -1.0 9.81e-01   0.9 7.46e-01 1.00e+00h  1
   4 -2.3502991e+00 5.76e-02 2.16e+00  -1.0 1.14e+00    -  1.00e+00 1.00e+00h  1
   5 -7.5159633e+00 3.10e+00 5.43e+00  -1.0 6.82e-01   0.4 1.00e+00 1.00e+00f  1
   6 -2.8123237e+01 1.44e+01 9.29e+00  -1.0 2.69e+00    -  7.63e-01 1.00e+00f  1
   7 -7.7387093e-02 3.15e+00 2.77e+03  -1.0 2.54e+00   2.6 1.00e+00 1.00e+00h  1
   8 -7.5624007e+00 3.27e+00 3.06e+03  -1.0 1.42e+00   3.0 1.00e+00 1.00e+00f  1
   9 -4.0334964e+01 1.64e+01 5.16e+03  -1.0 4.25e+00   3.5 4.62e-01 4.40e-01f  1
iter    objective    inf_pr   inf_du lg(mu)  ||d||  lg(rg) alpha_du alpha_pr  ls
  10 -3.2333261e-03 4.16e+00 1.31e+03  -1.0 3.75e+00    -  1.00e+00 7.46e-01h  1
  11 -3.1973501e-07 4.00e+00 1.27e+03  -1.0 1.19e+00    -  1.00e+00 3.77e-02h  1
  12 -3.1548988e-11 3.97e+00 2.27e+03  -1.0 3.83e+00    -  1.00e+00 6.62e-03h  1
  13 -2.9568529e-09 3.73e-01 2.49e+02  -1.0 3.97e+00    -  1.00e+00 9.08e-01h  1
  14 -9.3569328e-11 1.39e-02 6.40e+01  -1.0 3.73e-01    -  1.00e+00 9.91e-01h  1
  15 -1.6014745e-10 3.29e-03 2.34e+01  -1.0 2.81e-02    -  9.35e-01 1.00e+00h  1
  16 -2.0531873e-07 1.04e-01 1.51e+02  -1.0 1.21e-01    -  1.58e-01 1.00e+00f  1
  17 -5.0627388e-08 9.25e-02 1.33e+02  -1.0 1.17e-01    -  1.00e+00 1.26e-01h  2
  18 -4.4815904e-08 1.98e-02 3.22e+01  -1.0 5.31e-02    -  1.00e+00 1.00e+00h  1
  19 -2.8494348e-07 1.44e-03 4.76e+00  -1.0 1.85e-02    -  9.10e-01 1.00e+00f  1
iter    objective    inf_pr   inf_du lg(mu)  ||d||  lg(rg) alpha_du alpha_pr  ls
  20 -2.9244892e-05 1.06e-01 1.48e+01  -1.0 1.23e-01    -  5.48e-01 1.00e+00f  1
  21 -2.3186363e-04 4.23e-02 4.68e+00  -1.0 1.18e-01    -  1.00e+00 1.00e+00f  1
  22 -1.5552816e-02 6.86e-01 3.30e+00  -1.0 3.49e-01    -  3.18e-01 1.00e+00f  1
  23 -8.9354398e-02 1.54e-02 6.43e-01  -1.0 2.58e-01    -  7.23e-01 1.00e+00h  1
  24 -9.0578200e-02 1.11e-04 5.24e+00  -1.7 5.56e-03   3.0 1.00e+00 1.00e+00h  1
  25 -6.2318794e+01 2.15e+01 2.91e+01  -1.7 5.37e+00    -  1.01e-01 1.00e+00f  1
  26 -4.1059705e+01 2.16e+01 3.21e+02  -1.7 2.51e+00   2.5 7.67e-01 1.00e+00h  1
  27 -9.0380200e+01 1.82e+01 1.09e+04  -1.7 8.16e+00   2.9 6.19e-01 1.00e+00f  1
  28 -9.6884592e+00 3.41e+00 1.64e+06  -1.7 3.35e+00   5.2 4.15e-02 1.00e+00h  1
  29 -5.6720747e+00 1.80e+00 3.05e+05  -1.7 5.11e-01   5.6 1.00e+00 1.00e+00h  1
iter    objective    inf_pr   inf_du lg(mu)  ||d||  lg(rg) alpha_du alpha_pr  ls
  30 -2.9413673e+00 3.35e-02 6.43e+04  -1.7 3.41e-01   5.1 1.00e+00 1.00e+00h  1
  31 -2.8987699e+00 7.70e-05 5.01e+02  -1.7 6.38e-03   4.6 1.00e+00 1.00e+00h  1
  32 -2.9488159e+00 1.05e-03 3.22e+00  -1.7 8.71e-02    -  1.00e+00 1.00e+00f  1
  33 -4.3103020e+00 7.28e-01 3.53e+00  -1.7 7.56e-01    -  1.00e+00 1.00e+00f  1
  34 -3.6026583e+00 1.03e-01 4.07e-01  -1.7 1.61e-01    -  1.00e+00 1.00e+00h  1
  35 -3.4595079e+00 2.45e-03 1.06e-02  -1.7 2.70e-02    -  1.00e+00 1.00e+00h  1
  36 -3.4560020e+00 1.77e-06 6.43e-05  -3.8 7.09e-03    -  1.00e+00 1.00e+00h  1
  37 -3.4560000e+00 2.96e-10 2.98e-09  -5.7 9.40e-05    -  1.00e+00 1.00e+00h  1
  38 -3.4560000e+00 1.51e-14 1.27e-13  -8.6 6.83e-07    -  1.00e+00 1.00e+00h  1

Number of Iterations....: 38

                                   (scaled)                 (unscaled)
Objective...............:  -3.4560000000000008e+00   -3.4560000000000008e+00
Dual infeasibility......:   1.2724856842873774e-13    1.2724856842873774e-13
Constraint violation....:   1.5099033134902129e-14    1.5099033134902129e-14
Complementarity.........:   2.5064305396070461e-09    2.5064305396070461e-09
Overall NLP error.......:   2.5064305396070461e-09    2.5064305396070461e-09


Number of objective function evaluations             = 40
Number of objective gradient evaluations             = 39
Number of equality constraint evaluations            = 40
Number of inequality constraint evaluations          = 0
Number of equality constraint Jacobian evaluations   = 39
Number of inequality constraint Jacobian evaluations = 0
Number of Lagrangian Hessian evaluations             = 38
Total CPU secs in IPOPT (w/o function evaluations)   =      0.015
Total CPU secs in NLP function evaluations           =      0.001

EXIT: Optimal Solution Found.
 
Ipopt 3.12.8: Optimal Solution Found
